894619
48, 1, 32, 60, 31, 62, 72, 55, 44, 91, 97, 42, 35, 83, 15, 16, 82, 58, 61, 67, 27, 2, 3, 64, 5, 85, 89, 8, 53, 41, 6, 69, 75, 18, 56, 77, 21, 20, 96, 30, 10, 49, 93, 13, 63, 80, 68, 99, 36, 50, 88, 38, 76, 87, 45, 86, 81, 66, 4, 7, 14, 39, 92, 84, 73, 22, 24, 59, 90, 34, 71, 46, 28, 11, 23, 98, 54, 65, 52, 43, 19, 17, 12, 26, 94, 40, 79, 29, 78, 51, 25, 95, 47, 57, 33, 9, 70, 74, 37
